0tutorial/attachment/eqsystem/7-columns/eqsystem-columns.log
GLPSOL: GLPK LP/MIP Solver, v4.65
Parameter(s) specified in the command line:
 -m eqsystem-columns.mod -d eqsystem-columns.dat --log eqsystem-columns.log
Reading model section from eqsystem-columns.mod...
23 lines were read
Reading data section from eqsystem-columns.dat...
17 lines were read
Checking (line 4)...
Generating ImplementingEquations...
Model has been successfully generated
GLPK Simplex Optimizer, v4.65
5 rows, 5 columns, 14 non-zeros
Preprocessing...
5 rows, 5 columns, 14 non-zeros
Scaling...
 A: min|aij| =  1.000e+00  max|aij| =  7.000e+00  ratio =  7.000e+00
Problem data seem to be well scaled
Constructing initial basis...
Size of triangular part is 4
      0: obj =   0.000000000e+00 inf =   1.250e+00 (1)
      1: obj =   0.000000000e+00 inf =   0.000e+00 (0)
OPTIMAL LP SOLUTION FOUND
Time used:   0.0 secs
Memory used: 0.1 Mb (118401 bytes)
x = 2
y = 3.5
z = -2
w = 7
v = 0.5
Model has been successfully processed
